
Gurobi 10.0.1 (win64) logging started Sat Sep 16 16:57:10 2023

Set parameter LogFile to value "./results-heuristic-start//log/Fattahi_setup_06_modified_old_makespan.log"
Gurobi Optimizer version 10.0.1 build v10.0.1rc0 (win64)

CPU model: AMD Ryzen 7 3700X 8-Core Processor, instruction set [SSE2|AVX|AVX2]
Thread count: 8 physical cores, 16 logical processors, using up to 16 threads

Optimize a model with 126 rows, 112 columns and 490 nonzeros
Model fingerprint: 0x57faab43
Variable types: 15 continuous, 97 integer (96 binary)
Coefficient statistics:
  Matrix range     [1e+00, 1e+06]
  Objective range  [1e+00, 1e+00]
  Bounds range     [1e+00, 1e+00]
  RHS range        [1e+00, 3e+06]

User MIP start did not produce a new incumbent solution
User MIP start violates constraint initial_start_time_job0_stage0_machine0_constraint by 420.000000000

Found heuristic solution: objective 4487.0000000
Presolve removed 29 rows and 59 columns
Presolve time: 0.00s
Presolved: 97 rows, 53 columns, 415 nonzeros
Variable types: 15 continuous, 38 integer (37 binary)

Root relaxation: objective 2.107000e+03, 46 iterations, 0.00 seconds (0.00 work units)

    Nodes    |    Current Node    |     Objective Bounds      |     Work
 Expl Unexpl |  Obj  Depth IntInf | Incumbent    BestBd   Gap | It/Node Time

     0     0 2107.00000    0   16 4487.00000 2107.00000  53.0%     -    0s
H    0     0                    4486.0000000 2107.00000  53.0%     -    0s
H    0     0                    4086.0000000 2107.00000  48.4%     -    0s
     0     0 2319.00000    0   15 4086.00000 2319.00000  43.2%     -    0s
H    0     0                    4084.0000000 2319.00000  43.2%     -    0s
H    0     0                    3747.0000000 2319.00000  38.1%     -    0s
     0     0 2354.00000    0   13 3747.00000 2354.00000  37.2%     -    0s
     0     0 2354.00000    0   14 3747.00000 2354.00000  37.2%     -    0s
H    0     0                    3746.0000000 2354.00000  37.2%     -    0s
     0     0 2409.00000    0   15 3746.00000 2409.00000  35.7%     -    0s
H    0     0                    3316.0000000 2409.00000  27.4%     -    0s
     0     0 2419.00000    0    7 3316.00000 2419.00000  27.1%     -    0s
     0     0 2419.00000    0    8 3316.00000 2419.00000  27.1%     -    0s
     0     0 2419.00000    0    9 3316.00000 2419.00000  27.1%     -    0s
     0     0 2429.00000    0   11 3316.00000 2429.00000  26.7%     -    0s
     0     0 2429.00000    0   11 3316.00000 2429.00000  26.7%     -    0s
     0     0 2429.00000    0   12 3316.00000 2429.00000  26.7%     -    0s
     0     0 2429.00000    0   13 3316.00000 2429.00000  26.7%     -    0s
     0     0 2429.00000    0   12 3316.00000 2429.00000  26.7%     -    0s
     0     0 2439.00000    0   13 3316.00000 2439.00000  26.4%     -    0s
     0     0 2439.00000    0   14 3316.00000 2439.00000  26.4%     -    0s
     0     0 2439.00000    0   14 3316.00000 2439.00000  26.4%     -    0s
     0     0 2439.00000    0   14 3316.00000 2439.00000  26.4%     -    0s
     0     1 2439.00000    0   14 3316.00000 2439.00000  26.4%     -    0s
*  212     5              17    3306.0000000 2839.00000  14.1%   3.4    0s

Cutting planes:
  Gomory: 1
  Implied bound: 7
  MIR: 3
  Flow cover: 16
  Inf proof: 1
  RLT: 1

Explored 219 nodes (1006 simplex iterations) in 0.05 seconds (0.02 work units)
Thread count was 16 (of 16 available processors)

Solution count 9: 3306 3306 3316 ... 4487

Optimal solution found (tolerance 1.00e-04)
Best objective 3.306000000000e+03, best bound 3.306000000000e+03, gap 0.0000%
Warning: constraint name "precedence between 0,1 to 0,0 if x_[j,l,h,z,i]=1" has a space
Warning: constraint name "precedence between 0,1 to 0,0 if x_[j,l,h,z,i]=1" has a space
Warning: default constraint names used to write mps file
